(declare-const X String)
; @{2}((\S)+)@{2}
(assert (str.in_re X (re.++ ((_ re.loop 2 2) (str.to_re "@")) (re.+ (re.comp (re.union (str.to_re " ") (str.to_re "\u{9}") (str.to_re "\u{a}") (str.to_re "\u{c}") (str.to_re "\u{d}")))) ((_ re.loop 2 2) (str.to_re "@")) (str.to_re "\u{a}"))))
; /^\d+O\d+\.jsp\?[a-z0-9\x3d\x2b\x2f]{20}/iR
(assert (not (str.in_re X (re.++ (str.to_re "/") (re.+ (re.range "0" "9")) (str.to_re "O") (re.+ (re.range "0" "9")) (str.to_re ".jsp?") ((_ re.loop 20 20) (re.union (re.range "a" "z") (re.range "0" "9") (str.to_re "=") (str.to_re "+") (str.to_re "/"))) (str.to_re "/iR\u{a}")))))
; Host\x3A\s+\x2Ftoolbar\x2Fico\x2F\dencoderserverreport\<\x2Ftitle\>
(assert (str.in_re X (re.++ (str.to_re "Host:") (re.+ (re.union (str.to_re " ") (str.to_re "\u{9}") (str.to_re "\u{a}") (str.to_re "\u{c}") (str.to_re "\u{d}"))) (str.to_re "/toolbar/ico/") (re.range "0" "9") (str.to_re "encoderserverreport</title>\u{a}"))))
(check-sat)

(exit)
